
Gurobi 6.5.2 (linux64) logging started Tue Sep 20 21:22:06 2016


Gurobi 6.5.2 (linux64) logging started Tue Sep 20 21:22:06 2016

Optimize a model with 201 rows, 2575 columns and 5459 nonzeros
Coefficient statistics:
  Matrix range    [1e+00, 2e+00]
  Objective range [1e+00, 1e+02]
  Bounds range    [1e+00, 1e+00]
  RHS range       [1e+00, 1e+00]
Found heuristic solution: objective 3074
Presolve removed 60 rows and 6 columns
Presolve time: 0.01s
Presolved: 141 rows, 2569 columns, 5187 nonzeros
Variable types: 0 continuous, 2569 integer (2569 binary)

Root relaxation: objective 1.023500e+03, 131 iterations, 0.00 seconds

    Nodes    |    Current Node    |     Objective Bounds      |     Work
 Expl Unexpl |  Obj  Depth IntInf | Incumbent    BestBd   Gap | It/Node Time

     0     0 1023.50000    0   26 3074.00000 1023.50000  66.7%     -    0s
     0     0 1049.75000    0   10 3074.00000 1049.75000  65.9%     -    0s
     0     0 1050.50000    0    8 3074.00000 1050.50000  65.8%     -    0s
     0     0 1051.33333    0   25 3074.00000 1051.33333  65.8%     -    0s
     0     0 1051.33333    0   20 3074.00000 1051.33333  65.8%     -    0s
     0     0 1051.33333    0   25 3074.00000 1051.33333  65.8%     -    0s
     0     0 1051.33333    0   23 3074.00000 1051.33333  65.8%     -    0s
     0     2 1051.33333    0   23 3074.00000 1051.33333  65.8%     -    0s
* 3258  1992             191    1799.0000000 1052.25000  41.5%   5.3    4s
H 3918  2323                    1797.0000000 1052.25000  41.4%   5.4    4s
* 4016  2331             226    1476.0000000 1052.25000  28.7%   5.4    4s
* 4123  2384             228    1474.0000000 1052.25000  28.6%   5.4    4s
* 4124  2380             227    1470.0000000 1052.25000  28.4%   5.4    4s
  4147  2391 1260.50000  170    6 1470.00000 1052.25000  28.4%   5.4    5s
H 6714  4510                    1465.0000000 1052.25000  28.2%   5.1    7s
  9126  6446 1398.33333  291    6 1465.00000 1052.25000  28.2%   5.1   10s

Cutting planes:
  Gomory: 22
  Cover: 33
  Flow cover: 1
  Zero half: 4
  Lazy constraints: 1175

Explored 9275 nodes (47670 simplex iterations) in 10.02 seconds
Thread count was 8 (of 8 available processors)

Time limit reached
Best objective 1.465000000000e+03, best bound 1.053000000000e+03, gap 28.1229%
